NAME: Coordinates
TYPE: TSP
DIMENSION: 52
NODE_COORD_SECTION
1 0.0 0.0
2 50805.0 41230.0
3 50728.0 41294.0
4 49031.0 42635.0
5 48954.0 42699.0
6 49928.0 40994.0
7 49851.0 41058.0
8 49604.0 41687.0
9 49527.0 41751.0
10 51075.0 39834.0
11 51152.0 39770.0
EOF
